p cnf 828 2532
1 2 3 4 0
-1 -2 0
-1 -3 0
-1 -4 0
-2 -3 0
-2 -4 0
-3 -4 0
5 -6 -7 0
6 -5 -7 0
-5 -6 7 0
6 5 7 0
-1 -7 0
6 -8 -9 0
8 -6 -9 0
9 -6 -8 0
9 6 8 0
-2 9 0
-5 10 0
-8 10 0
-11 10 0
5 8 11 -10 0
6 -10 -12 0
-6 10 -12 0
-6 -10 12 0
6 10 12 0
-3 12 0
5 13 0
8 13 0
11 13 0
-5 -8 -11 -13 0
-6 13 -14 0
6 -13 -14 0
14 -13 -6 0
6 13 14 0
-4 -14 0
8 -15 -16 0
15 -8 -16 0
-8 -15 16 0
8 15 16 0
-1 -16 0
15 -11 -17 0
11 -15 -17 0
17 -15 -11 0
17 15 11 0
-2 17 0
-8 18 0
-11 18 0
8 11 -18 0
15 -18 -19 0
-15 18 -19 0
-15 -18 19 0
15 18 19 0
-3 19 0
8 20 0
11 20 0
-8 -11 -20 0
-15 20 -21 0
15 -20 -21 0
21 -20 -15 0
15 20 21 0
-4 -21 0
11 -22 -23 0
22 -11 -23 0
-11 -22 23 0
11 22 23 0
-1 -23 0
22 -11 -24 0
11 -22 -24 0
24 -22 -11 0
24 22 11 0
-2 24 0
-11 25 0
-22 25 0
11 22 -25 0
22 -25 -26 0
-22 25 -26 0
-22 -25 26 0
22 25 26 0
-3 26 0
11 27 0
22 27 0
-11 -22 -27 0
-22 27 -28 0
22 -27 -28 0
28 -27 -22 0
22 27 28 0
-4 -28 0
29 -30 -31 0
30 -29 -31 0
-29 -30 31 0
30 29 31 0
-1 -31 0
30 -32 -33 0
32 -30 -33 0
33 -30 -32 0
33 30 32 0
-2 33 0
-29 34 0
-32 34 0
-35 34 0
-36 34 0
-37 34 0
-38 34 0
29 32 35 36 37 38 -34 0
30 -34 -39 0
-30 34 -39 0
-30 -34 39 0
30 34 39 0
-3 39 0
29 40 0
32 40 0
35 40 0
36 40 0
37 40 0
38 40 0
-41 0
-30 40 -42 0
30 -40 -42 0
42 -40 -30 0
30 40 42 0
-4 -42 0
32 -43 -44 0
43 -32 -44 0
-32 -43 44 0
32 43 44 0
-1 -44 0
43 -35 -45 0
35 -43 -45 0
45 -43 -35 0
45 43 35 0
-2 45 0
-32 46 0
-35 46 0
-36 46 0
-37 46 0
-38 46 0
32 35 36 37 38 -46 0
43 -46 -47 0
-43 46 -47 0
-43 -46 47 0
43 46 47 0
-3 47 0
32 48 0
35 48 0
36 48 0
37 48 0
38 48 0
-49 0
-43 48 -50 0
43 -48 -50 0
50 -48 -43 0
43 48 50 0
-4 -50 0
35 -51 -52 0
51 -35 -52 0
-35 -51 52 0
35 51 52 0
-1 -52 0
51 -36 -53 0
36 -51 -53 0
53 -51 -36 0
53 51 36 0
-2 53 0
-35 54 0
-36 54 0
-37 54 0
-38 54 0
35 36 37 38 -54 0
51 -54 -55 0
-51 54 -55 0
-51 -54 55 0
51 54 55 0
-3 55 0
35 56 0
36 56 0
37 56 0
38 56 0
-57 0
-51 56 -58 0
51 -56 -58 0
58 -56 -51 0
51 56 58 0
-4 -58 0
36 -59 -60 0
59 -36 -60 0
-36 -59 60 0
36 59 60 0
-1 -60 0
59 -37 -61 0
37 -59 -61 0
61 -59 -37 0
61 59 37 0
-2 61 0
59 -54 -62 0
54 -59 -62 0
-54 -59 62 0
59 54 62 0
-3 62 0
56 -59 -63 0
59 -56 -63 0
63 -56 -59 0
59 56 63 0
-4 -63 0
37 -64 -65 0
64 -37 -65 0
-37 -64 65 0
37 64 65 0
-1 -65 0
64 -38 -66 0
38 -64 -66 0
66 -64 -38 0
66 64 38 0
-2 66 0
64 -54 -67 0
54 -64 -67 0
-54 -64 67 0
64 54 67 0
-3 67 0
56 -64 -68 0
64 -56 -68 0
68 -56 -64 0
64 56 68 0
-4 -68 0
38 -69 -70 0
69 -38 -70 0
-38 -69 70 0
38 69 70 0
-1 -70 0
-35 69 -71 0
35 -69 -71 0
71 -69 -35 0
71 69 35 0
-2 71 0
-38 72 0
-51 72 0
38 51 -72 0
69 -72 -73 0
-69 72 -73 0
-69 -72 73 0
69 72 73 0
-3 73 0
38 74 0
51 74 0
-38 -51 -74 0
-69 74 -75 0
69 -74 -75 0
75 -74 -69 0
69 74 75 0
-4 -75 0
76 -77 -78 0
77 -76 -78 0
-76 -77 78 0
77 76 78 0
-1 -78 0
-37 77 -79 0
37 -77 -79 0
79 -77 -37 0
79 77 37 0
-2 79 0
-35 80 0
-36 80 0
-37 80 0
-38 80 0
-76 80 0
35 36 37 38 76 -80 0
77 -80 -81 0
-77 80 -81 0
-77 -80 81 0
77 80 81 0
-3 81 0
35 82 0
36 82 0
37 82 0
38 82 0
76 82 0
-83 0
-77 82 -84 0
77 -82 -84 0
84 -82 -77 0
77 82 84 0
-4 -84 0
85 -86 -87 0
86 -85 -87 0
-85 -86 87 0
86 85 87 0
-1 -87 0
86 -88 -89 0
88 -86 -89 0
89 -86 -88 0
89 86 88 0
-2 89 0
-85 90 0
-88 90 0
-91 90 0
-92 90 0
-93 90 0
-94 90 0
95 0
86 -90 -96 0
-86 90 -96 0
-86 -90 96 0
86 90 96 0
-3 96 0
85 97 0
88 97 0
91 97 0
92 97 0
93 97 0
94 97 0
-98 0
-86 97 -99 0
86 -97 -99 0
99 -97 -86 0
86 97 99 0
-4 -99 0
88 -100 -101 0
100 -88 -101 0
-88 -100 101 0
88 100 101 0
-1 -101 0
100 -91 -102 0
91 -100 -102 0
102 -100 -91 0
102 100 91 0
-2 102 0
-88 103 0
-91 103 0
-92 103 0
-93 103 0
-94 103 0
88 91 92 93 94 -103 0
100 -103 -104 0
-100 103 -104 0
-100 -103 104 0
100 103 104 0
-3 104 0
88 105 0
91 105 0
92 105 0
93 105 0
94 105 0
-106 0
-100 105 -107 0
100 -105 -107 0
107 -105 -100 0
100 105 107 0
-4 -107 0
91 -108 -109 0
108 -91 -109 0
-91 -108 109 0
91 108 109 0
-1 -109 0
108 -92 -110 0
92 -108 -110 0
110 -108 -92 0
110 108 92 0
-2 110 0
-91 111 0
-92 111 0
-93 111 0
-94 111 0
91 92 93 94 -111 0
108 -111 -112 0
-108 111 -112 0
-108 -111 112 0
108 111 112 0
-3 112 0
91 113 0
92 113 0
93 113 0
94 113 0
-114 0
-108 113 -115 0
108 -113 -115 0
115 -113 -108 0
108 113 115 0
-4 -115 0
92 -116 -117 0
116 -92 -117 0
-92 -116 117 0
92 116 117 0
-1 -117 0
116 -93 -118 0
93 -116 -118 0
118 -116 -93 0
118 116 93 0
-2 118 0
116 -111 -119 0
111 -116 -119 0
-111 -116 119 0
116 111 119 0
-3 119 0
113 -116 -120 0
116 -113 -120 0
120 -113 -116 0
116 113 120 0
-4 -120 0
93 -121 -122 0
121 -93 -122 0
-93 -121 122 0
93 121 122 0
-1 -122 0
121 -94 -123 0
94 -121 -123 0
123 -121 -94 0
123 121 94 0
-2 123 0
121 -111 -124 0
111 -121 -124 0
-111 -121 124 0
121 111 124 0
-3 124 0
113 -121 -125 0
121 -113 -125 0
125 -113 -121 0
121 113 125 0
-4 -125 0
94 -126 -127 0
126 -94 -127 0
-94 -126 127 0
94 126 127 0
-1 -127 0
-91 126 -128 0
91 -126 -128 0
128 -126 -91 0
128 126 91 0
-2 128 0
-94 129 0
-108 129 0
94 108 -129 0
126 -129 -130 0
-126 129 -130 0
-126 -129 130 0
126 129 130 0
-3 130 0
94 131 0
108 131 0
-94 -108 -131 0
-126 131 -132 0
126 -131 -132 0
132 -131 -126 0
126 131 132 0
-4 -132 0
133 -134 -135 0
134 -133 -135 0
-133 -134 135 0
134 133 135 0
-1 -135 0
-76 134 -136 0
76 -134 -136 0
136 -134 -76 0
136 134 76 0
-2 136 0
-35 137 0
-36 137 0
-37 137 0
-38 137 0
-76 137 0
-133 137 0
35 36 37 38 76 133 -137 0
134 -137 -138 0
-134 137 -138 0
-134 -137 138 0
134 137 138 0
-3 138 0
35 139 0
36 139 0
37 139 0
38 139 0
76 139 0
133 139 0
-140 0
-134 139 -141 0
134 -139 -141 0
141 -139 -134 0
134 139 141 0
-4 -141 0
142 -143 -144 0
143 -142 -144 0
-142 -143 144 0
143 142 144 0
-1 -144 0
143 -145 -146 0
145 -143 -146 0
146 -143 -145 0
146 143 145 0
-2 146 0
-91 147 0
-92 147 0
-93 147 0
-94 147 0
-142 147 0
-145 147 0
-148 147 0
149 0
143 -147 -150 0
-143 147 -150 0
-143 -147 150 0
143 147 150 0
-3 150 0
91 151 0
92 151 0
93 151 0
94 151 0
142 151 0
145 151 0
148 151 0
-152 0
-143 151 -153 0
143 -151 -153 0
153 -151 -143 0
143 151 153 0
-4 -153 0
145 -154 -155 0
154 -145 -155 0
-145 -154 155 0
145 154 155 0
-1 -155 0
154 -148 -156 0
148 -154 -156 0
156 -154 -148 0
156 154 148 0
-2 156 0
-91 157 0
-92 157 0
-93 157 0
-94 157 0
-145 157 0
-148 157 0
158 0
154 -157 -159 0
-154 157 -159 0
-154 -157 159 0
154 157 159 0
-3 159 0
91 160 0
92 160 0
93 160 0
94 160 0
145 160 0
148 160 0
-161 0
-154 160 -162 0
154 -160 -162 0
162 -160 -154 0
154 160 162 0
-4 -162 0
148 -163 -164 0
163 -148 -164 0
-148 -163 164 0
148 163 164 0
-1 -164 0
-92 163 -165 0
92 -163 -165 0
165 -163 -92 0
165 163 92 0
-2 165 0
-91 166 0
-92 166 0
-93 166 0
-94 166 0
-148 166 0
91 92 93 94 148 -166 0
163 -166 -167 0
-163 166 -167 0
-163 -166 167 0
163 166 167 0
-3 167 0
91 168 0
92 168 0
93 168 0
94 168 0
148 168 0
-169 0
-163 168 -170 0
163 -168 -170 0
170 -168 -163 0
163 168 170 0
-4 -170 0
171 -172 -173 0
172 -171 -173 0
-171 -172 173 0
172 171 173 0
-1 -173 0
-38 172 -174 0
38 -172 -174 0
174 -172 -38 0
174 172 38 0
-2 174 0
-35 175 0
-36 175 0
-37 175 0
-38 175 0
-171 175 0
35 36 37 38 171 -175 0
172 -175 -176 0
-172 175 -176 0
-172 -175 176 0
172 175 176 0
-3 176 0
35 177 0
36 177 0
37 177 0
38 177 0
171 177 0
-178 0
-172 177 -179 0
172 -177 -179 0
179 -177 -172 0
172 177 179 0
-4 -179 0
180 -181 -182 0
181 -180 -182 0
-180 -181 182 0
181 180 182 0
-1 -182 0
181 -183 -184 0
183 -181 -184 0
184 -181 -183 0
184 181 183 0
-2 184 0
-11 185 0
-180 185 0
-183 185 0
11 180 183 -185 0
181 -185 -186 0
-181 185 -186 0
-181 -185 186 0
181 185 186 0
-3 186 0
11 187 0
180 187 0
183 187 0
-11 -180 -183 -187 0
-181 187 -188 0
181 -187 -188 0
188 -187 -181 0
181 187 188 0
-4 -188 0
183 -189 -190 0
189 -183 -190 0
-183 -189 190 0
183 189 190 0
-1 -190 0
-11 189 -191 0
11 -189 -191 0
191 -189 -11 0
191 189 11 0
-2 191 0
-11 192 0
-183 192 0
11 183 -192 0
189 -192 -193 0
-189 192 -193 0
-189 -192 193 0
189 192 193 0
-3 193 0
11 194 0
183 194 0
-11 -183 -194 0
-189 194 -195 0
189 -194 -195 0
195 -194 -189 0
189 194 195 0
-4 -195 0
196 -197 -198 0
197 -196 -198 0
-196 -197 198 0
197 196 198 0
-1 -198 0
197 -199 -200 0
199 -197 -200 0
200 -197 -199 0
200 197 199 0
-2 200 0
-196 201 0
-199 201 0
-202 201 0
-203 201 0
-204 201 0
-205 201 0
206 0
197 -201 -207 0
-197 201 -207 0
-197 -201 207 0
197 201 207 0
-3 207 0
196 208 0
199 208 0
202 208 0
203 208 0
204 208 0
205 208 0
-209 0
-197 208 -210 0
197 -208 -210 0
210 -208 -197 0
197 208 210 0
-4 -210 0
199 -211 -212 0
211 -199 -212 0
-199 -211 212 0
199 211 212 0
-1 -212 0
211 -202 -213 0
202 -211 -213 0
213 -211 -202 0
213 211 202 0
-2 213 0
-199 214 0
-202 214 0
-203 214 0
-204 214 0
-205 214 0
199 202 203 204 205 -214 0
211 -214 -215 0
-211 214 -215 0
-211 -214 215 0
211 214 215 0
-3 215 0
199 216 0
202 216 0
203 216 0
204 216 0
205 216 0
-217 0
-211 216 -218 0
211 -216 -218 0
218 -216 -211 0
211 216 218 0
-4 -218 0
202 -219 -220 0
219 -202 -220 0
-202 -219 220 0
202 219 220 0
-1 -220 0
219 -203 -221 0
203 -219 -221 0
221 -219 -203 0
221 219 203 0
-2 221 0
-202 222 0
-203 222 0
-204 222 0
-205 222 0
202 203 204 205 -222 0
219 -222 -223 0
-219 222 -223 0
-219 -222 223 0
219 222 223 0
-3 223 0
202 224 0
203 224 0
204 224 0
205 224 0
-225 0
-219 224 -226 0
219 -224 -226 0
226 -224 -219 0
219 224 226 0
-4 -226 0
203 -227 -228 0
227 -203 -228 0
-203 -227 228 0
203 227 228 0
-1 -228 0
227 -204 -229 0
204 -227 -229 0
229 -227 -204 0
229 227 204 0
-2 229 0
227 -222 -230 0
222 -227 -230 0
-222 -227 230 0
227 222 230 0
-3 230 0
224 -227 -231 0
227 -224 -231 0
231 -224 -227 0
227 224 231 0
-4 -231 0
204 -232 -233 0
232 -204 -233 0
-204 -232 233 0
204 232 233 0
-1 -233 0
232 -205 -234 0
205 -232 -234 0
234 -232 -205 0
234 232 205 0
-2 234 0
232 -222 -235 0
222 -232 -235 0
-222 -232 235 0
232 222 235 0
-3 235 0
224 -232 -236 0
232 -224 -236 0
236 -224 -232 0
232 224 236 0
-4 -236 0
205 -237 -238 0
237 -205 -238 0
-205 -237 238 0
205 237 238 0
-1 -238 0
-202 237 -239 0
202 -237 -239 0
239 -237 -202 0
239 237 202 0
-2 239 0
-205 240 0
-219 240 0
205 219 -240 0
237 -240 -241 0
-237 240 -241 0
-237 -240 241 0
237 240 241 0
-3 241 0
205 242 0
219 242 0
-205 -219 -242 0
-237 242 -243 0
237 -242 -243 0
243 -242 -237 0
237 242 243 0
-4 -243 0
244 -245 -246 0
245 -244 -246 0
-244 -245 246 0
245 244 246 0
-1 -246 0
245 -247 -248 0
247 -245 -248 0
248 -245 -247 0
248 245 247 0
-2 248 0
-244 249 0
-247 249 0
-250 249 0
-251 249 0
-252 249 0
-253 249 0
254 0
245 -249 -255 0
-245 249 -255 0
-245 -249 255 0
245 249 255 0
-3 255 0
244 256 0
247 256 0
250 256 0
251 256 0
252 256 0
253 256 0
-257 0
-245 256 -258 0
245 -256 -258 0
258 -256 -245 0
245 256 258 0
-4 -258 0
247 -259 -260 0
259 -247 -260 0
-247 -259 260 0
247 259 260 0
-1 -260 0
259 -250 -261 0
250 -259 -261 0
261 -259 -250 0
261 259 250 0
-2 261 0
-247 262 0
-250 262 0
-251 262 0
-252 262 0
-253 262 0
247 250 251 252 253 -262 0
259 -262 -263 0
-259 262 -263 0
-259 -262 263 0
259 262 263 0
-3 263 0
247 264 0
250 264 0
251 264 0
252 264 0
253 264 0
-265 0
-259 264 -266 0
259 -264 -266 0
266 -264 -259 0
259 264 266 0
-4 -266 0
250 -267 -268 0
267 -250 -268 0
-250 -267 268 0
250 267 268 0
-1 -268 0
267 -251 -269 0
251 -267 -269 0
269 -267 -251 0
269 267 251 0
-2 269 0
-250 270 0
-251 270 0
-252 270 0
-253 270 0
250 251 252 253 -270 0
267 -270 -271 0
-267 270 -271 0
-267 -270 271 0
267 270 271 0
-3 271 0
250 272 0
251 272 0
252 272 0
253 272 0
-273 0
-267 272 -274 0
267 -272 -274 0
274 -272 -267 0
267 272 274 0
-4 -274 0
251 -275 -276 0
275 -251 -276 0
-251 -275 276 0
251 275 276 0
-1 -276 0
275 -252 -277 0
252 -275 -277 0
277 -275 -252 0
277 275 252 0
-2 277 0
-251 278 0
-252 278 0
-253 278 0
251 252 253 -278 0
275 -278 -279 0
-275 278 -279 0
-275 -278 279 0
275 278 279 0
-3 279 0
251 280 0
252 280 0
253 280 0
-251 -252 -253 -280 0
-275 280 -281 0
275 -280 -281 0
281 -280 -275 0
275 280 281 0
-4 -281 0
252 -282 -283 0
282 -252 -283 0
-252 -282 283 0
252 282 283 0
-1 -283 0
282 -253 -284 0
253 -282 -284 0
284 -282 -253 0
284 282 253 0
-2 284 0
-252 285 0
-253 285 0
252 253 -285 0
282 -285 -286 0
-282 285 -286 0
-282 -285 286 0
282 285 286 0
-3 286 0
252 287 0
253 287 0
-252 -253 -287 0
-282 287 -288 0
282 -287 -288 0
288 -287 -282 0
282 287 288 0
-4 -288 0
253 -289 -290 0
289 -253 -290 0
-253 -289 290 0
253 289 290 0
-1 -290 0
-252 289 -291 0
252 -289 -291 0
291 -289 -252 0
291 289 252 0
-2 291 0
-253 292 0
-282 292 0
253 282 -292 0
289 -292 -293 0
-289 292 -293 0
-289 -292 293 0
289 292 293 0
-3 293 0
253 294 0
282 294 0
-253 -282 -294 0
-289 294 -295 0
289 -294 -295 0
295 -294 -289 0
289 294 295 0
-4 -295 0
296 -297 -298 0
297 -296 -298 0
-296 -297 298 0
297 296 298 0
-1 -298 0
297 -299 -300 0
299 -297 -300 0
300 -297 -299 0
300 297 299 0
-2 300 0
-296 301 0
-299 301 0
-302 301 0
-303 301 0
-304 301 0
-305 301 0
306 0
297 -301 -307 0
-297 301 -307 0
-297 -301 307 0
297 301 307 0
-3 307 0
296 308 0
299 308 0
302 308 0
303 308 0
304 308 0
305 308 0
-309 0
-297 308 -310 0
297 -308 -310 0
310 -308 -297 0
297 308 310 0
-4 -310 0
299 -311 -312 0
311 -299 -312 0
-299 -311 312 0
299 311 312 0
-1 -312 0
311 -302 -313 0
302 -311 -313 0
313 -311 -302 0
313 311 302 0
-2 313 0
-299 314 0
-302 314 0
-303 314 0
-304 314 0
-305 314 0
299 302 303 304 305 -314 0
311 -314 -315 0
-311 314 -315 0
-311 -314 315 0
311 314 315 0
-3 315 0
299 316 0
302 316 0
303 316 0
304 316 0
305 316 0
-317 0
-311 316 -318 0
311 -316 -318 0
318 -316 -311 0
311 316 318 0
-4 -318 0
302 -319 -320 0
319 -302 -320 0
-302 -319 320 0
302 319 320 0
-1 -320 0
319 -303 -321 0
303 -319 -321 0
321 -319 -303 0
321 319 303 0
-2 321 0
-302 322 0
-303 322 0
-304 322 0
-305 322 0
302 303 304 305 -322 0
319 -322 -323 0
-319 322 -323 0
-319 -322 323 0
319 322 323 0
-3 323 0
302 324 0
303 324 0
304 324 0
305 324 0
-325 0
-319 324 -326 0
319 -324 -326 0
326 -324 -319 0
319 324 326 0
-4 -326 0
303 -327 -328 0
327 -303 -328 0
-303 -327 328 0
303 327 328 0
-1 -328 0
327 -304 -329 0
304 -327 -329 0
329 -327 -304 0
329 327 304 0
-2 329 0
-303 330 0
-304 330 0
-305 330 0
303 304 305 -330 0
327 -330 -331 0
-327 330 -331 0
-327 -330 331 0
327 330 331 0
-3 331 0
303 332 0
304 332 0
305 332 0
-303 -304 -305 -332 0
-327 332 -333 0
327 -332 -333 0
333 -332 -327 0
327 332 333 0
-4 -333 0
304 -334 -335 0
334 -304 -335 0
-304 -334 335 0
304 334 335 0
-1 -335 0
334 -305 -336 0
305 -334 -336 0
336 -334 -305 0
336 334 305 0
-2 336 0
334 -330 -337 0
330 -334 -337 0
-330 -334 337 0
334 330 337 0
-3 337 0
332 -334 -338 0
334 -332 -338 0
338 -332 -334 0
334 332 338 0
-4 -338 0
305 -339 -340 0
339 -305 -340 0
-305 -339 340 0
305 339 340 0
-1 -340 0
-303 339 -341 0
303 -339 -341 0
341 -339 -303 0
341 339 303 0
-2 341 0
-305 342 0
-327 342 0
305 327 -342 0
339 -342 -343 0
-339 342 -343 0
-339 -342 343 0
339 342 343 0
-3 343 0
305 344 0
327 344 0
-305 -327 -344 0
-339 344 -345 0
339 -344 -345 0
345 -344 -339 0
339 344 345 0
-4 -345 0
346 -347 -348 0
347 -346 -348 0
-346 -347 348 0
347 346 348 0
-1 -348 0
347 -349 -350 0
349 -347 -350 0
350 -347 -349 0
350 347 349 0
-2 350 0
-346 351 0
-349 351 0
-352 351 0
-353 351 0
-354 351 0
-355 351 0
-356 351 0
-357 351 0
358 0
347 -351 -359 0
-347 351 -359 0
-347 -351 359 0
347 351 359 0
-3 359 0
346 360 0
349 360 0
352 360 0
353 360 0
354 360 0
355 360 0
356 360 0
357 360 0
-361 0
-347 360 -362 0
347 -360 -362 0
362 -360 -347 0
347 360 362 0
-4 -362 0
349 -363 -364 0
363 -349 -364 0
-349 -363 364 0
349 363 364 0
-1 -364 0
363 -352 -365 0
352 -363 -365 0
365 -363 -352 0
365 363 352 0
-2 365 0
-349 366 0
-352 366 0
-353 366 0
-354 366 0
-355 366 0
-356 366 0
-357 366 0
367 0
363 -366 -368 0
-363 366 -368 0
-363 -366 368 0
363 366 368 0
-3 368 0
349 369 0
352 369 0
353 369 0
354 369 0
355 369 0
356 369 0
357 369 0
-370 0
-363 369 -371 0
363 -369 -371 0
371 -369 -363 0
363 369 371 0
-4 -371 0
352 -372 -373 0
372 -352 -373 0
-352 -372 373 0
352 372 373 0
-1 -373 0
372 -353 -374 0
353 -372 -374 0
374 -372 -353 0
374 372 353 0
-2 374 0
-352 375 0
-353 375 0
-354 375 0
-355 375 0
-356 375 0
-357 375 0
376 0
372 -375 -377 0
-372 375 -377 0
-372 -375 377 0
372 375 377 0
-3 377 0
352 378 0
353 378 0
354 378 0
355 378 0
356 378 0
357 378 0
-379 0
-372 378 -380 0
372 -378 -380 0
380 -378 -372 0
372 378 380 0
-4 -380 0
353 -381 -382 0
381 -353 -382 0
-353 -381 382 0
353 381 382 0
-1 -382 0
381 -354 -383 0
354 -381 -383 0
383 -381 -354 0
383 381 354 0
-2 383 0
-353 384 0
-354 384 0
-355 384 0
-356 384 0
-357 384 0
353 354 355 356 357 -384 0
381 -384 -385 0
-381 384 -385 0
-381 -384 385 0
381 384 385 0
-3 385 0
353 386 0
354 386 0
355 386 0
356 386 0
357 386 0
-387 0
-381 386 -388 0
381 -386 -388 0
388 -386 -381 0
381 386 388 0
-4 -388 0
354 -389 -390 0
389 -354 -390 0
-354 -389 390 0
354 389 390 0
-1 -390 0
389 -355 -391 0
355 -389 -391 0
391 -389 -355 0
391 389 355 0
-2 391 0
-354 392 0
-355 392 0
-356 392 0
-357 392 0
354 355 356 357 -392 0
389 -392 -393 0
-389 392 -393 0
-389 -392 393 0
389 392 393 0
-3 393 0
354 394 0
355 394 0
356 394 0
357 394 0
-395 0
-389 394 -396 0
389 -394 -396 0
396 -394 -389 0
389 394 396 0
-4 -396 0
355 -397 -398 0
397 -355 -398 0
-355 -397 398 0
355 397 398 0
-1 -398 0
397 -356 -399 0
356 -397 -399 0
399 -397 -356 0
399 397 356 0
-2 399 0
397 -392 -400 0
392 -397 -400 0
-392 -397 400 0
397 392 400 0
-3 400 0
394 -397 -401 0
397 -394 -401 0
401 -394 -397 0
397 394 401 0
-4 -401 0
356 -402 -403 0
402 -356 -403 0
-356 -402 403 0
356 402 403 0
-1 -403 0
402 -357 -404 0
357 -402 -404 0
404 -402 -357 0
404 402 357 0
-2 404 0
402 -392 -405 0
392 -402 -405 0
-392 -402 405 0
402 392 405 0
-3 405 0
394 -402 -406 0
402 -394 -406 0
406 -394 -402 0
402 394 406 0
-4 -406 0
357 -407 -408 0
407 -357 -408 0
-357 -407 408 0
357 407 408 0
-1 -408 0
-354 407 -409 0
354 -407 -409 0
409 -407 -354 0
409 407 354 0
-2 409 0
-357 410 0
-389 410 0
357 389 -410 0
407 -410 -411 0
-407 410 -411 0
-407 -410 411 0
407 410 411 0
-3 411 0
357 412 0
389 412 0
-357 -389 -412 0
-407 412 -413 0
407 -412 -413 0
413 -412 -407 0
407 412 413 0
-4 -413 0
414 -415 -416 0
415 -414 -416 0
-414 -415 416 0
415 414 416 0
-1 -416 0
415 -417 -418 0
417 -415 -418 0
418 -415 -417 0
418 415 417 0
-2 418 0
-252 419 0
-253 419 0
-414 419 0
-417 419 0
252 253 414 417 -419 0
415 -419 -420 0
-415 419 -420 0
-415 -419 420 0
415 419 420 0
-3 420 0
252 421 0
253 421 0
414 421 0
417 421 0
-422 0
-415 421 -423 0
415 -421 -423 0
423 -421 -415 0
415 421 423 0
-4 -423 0
417 -424 -425 0
424 -417 -425 0
-417 -424 425 0
417 424 425 0
-1 -425 0
-253 424 -426 0
253 -424 -426 0
426 -424 -253 0
426 424 253 0
-2 426 0
-252 427 0
-253 427 0
-417 427 0
252 253 417 -427 0
424 -427 -428 0
-424 427 -428 0
-424 -427 428 0
424 427 428 0
-3 428 0
252 429 0
253 429 0
417 429 0
-252 -253 -417 -429 0
-424 429 -430 0
424 -429 -430 0
430 -429 -424 0
424 429 430 0
-4 -430 0
431 -432 -433 0
432 -431 -433 0
-431 -432 433 0
432 431 433 0
-1 -433 0
432 -434 -435 0
434 -432 -435 0
435 -432 -434 0
435 432 434 0
-2 435 0
-431 436 0
-434 436 0
-437 436 0
-438 436 0
-439 436 0
431 434 437 438 439 -436 0
432 -436 -440 0
-432 436 -440 0
-432 -436 440 0
432 436 440 0
-3 440 0
431 441 0
434 441 0
437 441 0
438 441 0
439 441 0
-442 0
-432 441 -443 0
432 -441 -443 0
443 -441 -432 0
432 441 443 0
-4 -443 0
434 -444 -445 0
444 -434 -445 0
-434 -444 445 0
434 444 445 0
-1 -445 0
444 -437 -446 0
437 -444 -446 0
446 -444 -437 0
446 444 437 0
-2 446 0
-434 447 0
-437 447 0
-438 447 0
-439 447 0
434 437 438 439 -447 0
444 -447 -448 0
-444 447 -448 0
-444 -447 448 0
444 447 448 0
-3 448 0
434 449 0
437 449 0
438 449 0
439 449 0
-450 0
-444 449 -451 0
444 -449 -451 0
451 -449 -444 0
444 449 451 0
-4 -451 0
437 -452 -453 0
452 -437 -453 0
-437 -452 453 0
437 452 453 0
-1 -453 0
452 -438 -454 0
438 -452 -454 0
454 -452 -438 0
454 452 438 0
-2 454 0
-437 455 0
-438 455 0
-439 455 0
437 438 439 -455 0
452 -455 -456 0
-452 455 -456 0
-452 -455 456 0
452 455 456 0
-3 456 0
437 457 0
438 457 0
439 457 0
-437 -438 -439 -457 0
-452 457 -458 0
452 -457 -458 0
458 -457 -452 0
452 457 458 0
-4 -458 0
438 -459 -460 0
459 -438 -460 0
-438 -459 460 0
438 459 460 0
-1 -460 0
459 -439 -461 0
439 -459 -461 0
461 -459 -439 0
461 459 439 0
-2 461 0
459 -455 -462 0
455 -459 -462 0
-455 -459 462 0
459 455 462 0
-3 462 0
457 -459 -463 0
459 -457 -463 0
463 -457 -459 0
459 457 463 0
-4 -463 0
439 -464 -465 0
464 -439 -465 0
-439 -464 465 0
439 464 465 0
-1 -465 0
-437 464 -466 0
437 -464 -466 0
466 -464 -437 0
466 464 437 0
-2 466 0
-439 467 0
-452 467 0
439 452 -467 0
464 -467 -468 0
-464 467 -468 0
-464 -467 468 0
464 467 468 0
-3 468 0
439 469 0
452 469 0
-439 -452 -469 0
-464 469 -470 0
464 -469 -470 0
470 -469 -464 0
464 469 470 0
-4 -470 0
471 -472 -473 0
472 -471 -473 0
-471 -472 473 0
472 471 473 0
-1 -473 0
472 -474 -475 0
474 -472 -475 0
475 -472 -474 0
475 472 474 0
-2 475 0
-471 476 0
-474 476 0
-477 476 0
-478 476 0
-479 476 0
471 474 477 478 479 -476 0
472 -476 -480 0
-472 476 -480 0
-472 -476 480 0
472 476 480 0
-3 480 0
471 481 0
474 481 0
477 481 0
478 481 0
479 481 0
-482 0
-472 481 -483 0
472 -481 -483 0
483 -481 -472 0
472 481 483 0
-4 -483 0
474 -484 -485 0
484 -474 -485 0
-474 -484 485 0
474 484 485 0
-1 -485 0
484 -477 -486 0
477 -484 -486 0
486 -484 -477 0
486 484 477 0
-2 486 0
-474 487 0
-477 487 0
-478 487 0
-479 487 0
474 477 478 479 -487 0
484 -487 -488 0
-484 487 -488 0
-484 -487 488 0
484 487 488 0
-3 488 0
474 489 0
477 489 0
478 489 0
479 489 0
-490 0
-484 489 -491 0
484 -489 -491 0
491 -489 -484 0
484 489 491 0
-4 -491 0
477 -492 -493 0
492 -477 -493 0
-477 -492 493 0
477 492 493 0
-1 -493 0
492 -478 -494 0
478 -492 -494 0
494 -492 -478 0
494 492 478 0
-2 494 0
-477 495 0
-478 495 0
-479 495 0
477 478 479 -495 0
492 -495 -496 0
-492 495 -496 0
-492 -495 496 0
492 495 496 0
-3 496 0
477 497 0
478 497 0
479 497 0
-477 -478 -479 -497 0
-492 497 -498 0
492 -497 -498 0
498 -497 -492 0
492 497 498 0
-4 -498 0
478 -499 -500 0
499 -478 -500 0
-478 -499 500 0
478 499 500 0
-1 -500 0
499 -479 -501 0
479 -499 -501 0
501 -499 -479 0
501 499 479 0
-2 501 0
-478 502 0
-479 502 0
478 479 -502 0
499 -502 -503 0
-499 502 -503 0
-499 -502 503 0
499 502 503 0
-3 503 0
478 504 0
479 504 0
-478 -479 -504 0
-499 504 -505 0
499 -504 -505 0
505 -504 -499 0
499 504 505 0
-4 -505 0
479 -506 -507 0
506 -479 -507 0
-479 -506 507 0
479 506 507 0
-1 -507 0
-478 506 -508 0
478 -506 -508 0
508 -506 -478 0
508 506 478 0
-2 508 0
-479 509 0
-499 509 0
479 499 -509 0
506 -509 -510 0
-506 509 -510 0
-506 -509 510 0
506 509 510 0
-3 510 0
479 511 0
499 511 0
-479 -499 -511 0
-506 511 -512 0
506 -511 -512 0
512 -511 -506 0
506 511 512 0
-4 -512 0
513 -514 -515 0
514 -513 -515 0
-513 -514 515 0
514 513 515 0
-1 -515 0
514 -516 -517 0
516 -514 -517 0
517 -514 -516 0
517 514 516 0
-2 517 0
-513 518 0
-516 518 0
-519 518 0
-520 518 0
-521 518 0
513 516 519 520 521 -518 0
514 -518 -522 0
-514 518 -522 0
-514 -518 522 0
514 518 522 0
-3 522 0
513 523 0
516 523 0
519 523 0
520 523 0
521 523 0
-524 0
-514 523 -525 0
514 -523 -525 0
525 -523 -514 0
514 523 525 0
-4 -525 0
516 -526 -527 0
526 -516 -527 0
-516 -526 527 0
516 526 527 0
-1 -527 0
526 -519 -528 0
519 -526 -528 0
528 -526 -519 0
528 526 519 0
-2 528 0
-516 529 0
-519 529 0
-520 529 0
-521 529 0
516 519 520 521 -529 0
526 -529 -530 0
-526 529 -530 0
-526 -529 530 0
526 529 530 0
-3 530 0
516 531 0
519 531 0
520 531 0
521 531 0
-532 0
-526 531 -533 0
526 -531 -533 0
533 -531 -526 0
526 531 533 0
-4 -533 0
519 -534 -535 0
534 -519 -535 0
-519 -534 535 0
519 534 535 0
-1 -535 0
534 -520 -536 0
520 -534 -536 0
536 -534 -520 0
536 534 520 0
-2 536 0
-519 537 0
-520 537 0
-521 537 0
519 520 521 -537 0
534 -537 -538 0
-534 537 -538 0
-534 -537 538 0
534 537 538 0
-3 538 0
519 539 0
520 539 0
521 539 0
-519 -520 -521 -539 0
-534 539 -540 0
534 -539 -540 0
540 -539 -534 0
534 539 540 0
-4 -540 0
520 -541 -542 0
541 -520 -542 0
-520 -541 542 0
520 541 542 0
-1 -542 0
541 -521 -543 0
521 -541 -543 0
543 -541 -521 0
543 541 521 0
-2 543 0
541 -537 -544 0
537 -541 -544 0
-537 -541 544 0
541 537 544 0
-3 544 0
539 -541 -545 0
541 -539 -545 0
545 -539 -541 0
541 539 545 0
-4 -545 0
521 -546 -547 0
546 -521 -547 0
-521 -546 547 0
521 546 547 0
-1 -547 0
-519 546 -548 0
519 -546 -548 0
548 -546 -519 0
548 546 519 0
-2 548 0
-521 549 0
-534 549 0
521 534 -549 0
546 -549 -550 0
-546 549 -550 0
-546 -549 550 0
546 549 550 0
-3 550 0
521 551 0
534 551 0
-521 -534 -551 0
-546 551 -552 0
546 -551 -552 0
552 -551 -546 0
546 551 552 0
-4 -552 0
553 -554 -555 0
554 -553 -555 0
-553 -554 555 0
554 553 555 0
-1 -555 0
554 -556 -557 0
556 -554 -557 0
557 -554 -556 0
557 554 556 0
-2 557 0
-11 558 0
-183 558 0
-553 558 0
-556 558 0
11 183 553 556 -558 0
554 -558 -559 0
-554 558 -559 0
-554 -558 559 0
554 558 559 0
-3 559 0
11 560 0
183 560 0
553 560 0
556 560 0
-561 0
-554 560 -562 0
554 -560 -562 0
562 -560 -554 0
554 560 562 0
-4 -562 0
556 -563 -564 0
563 -556 -564 0
-556 -563 564 0
556 563 564 0
-1 -564 0
-183 563 -565 0
183 -563 -565 0
565 -563 -183 0
565 563 183 0
-2 565 0
-11 566 0
-183 566 0
-556 566 0
11 183 556 -566 0
563 -566 -567 0
-563 566 -567 0
-563 -566 567 0
563 566 567 0
-3 567 0
11 568 0
183 568 0
556 568 0
-11 -183 -556 -568 0
-563 568 -569 0
563 -568 -569 0
569 -568 -563 0
563 568 569 0
-4 -569 0
570 -571 -572 0
571 -570 -572 0
-570 -571 572 0
571 570 572 0
-1 -572 0
571 -573 -574 0
573 -571 -574 0
574 -571 -573 0
574 571 573 0
-2 574 0
-570 575 0
-573 575 0
-576 575 0
-577 575 0
-578 575 0
570 573 576 577 578 -575 0
571 -575 -579 0
-571 575 -579 0
-571 -575 579 0
571 575 579 0
-3 579 0
570 580 0
573 580 0
576 580 0
577 580 0
578 580 0
-581 0
-571 580 -582 0
571 -580 -582 0
582 -580 -571 0
571 580 582 0
-4 -582 0
573 -583 -584 0
583 -573 -584 0
-573 -583 584 0
573 583 584 0
-1 -584 0
583 -576 -585 0
576 -583 -585 0
585 -583 -576 0
585 583 576 0
-2 585 0
-573 586 0
-576 586 0
-577 586 0
-578 586 0
573 576 577 578 -586 0
583 -586 -587 0
-583 586 -587 0
-583 -586 587 0
583 586 587 0
-3 587 0
573 588 0
576 588 0
577 588 0
578 588 0
-589 0
-583 588 -590 0
583 -588 -590 0
590 -588 -583 0
583 588 590 0
-4 -590 0
576 -591 -592 0
591 -576 -592 0
-576 -591 592 0
576 591 592 0
-1 -592 0
591 -577 -593 0
577 -591 -593 0
593 -591 -577 0
593 591 577 0
-2 593 0
-576 594 0
-577 594 0
-578 594 0
576 577 578 -594 0
591 -594 -595 0
-591 594 -595 0
-591 -594 595 0
591 594 595 0
-3 595 0
576 596 0
577 596 0
578 596 0
-576 -577 -578 -596 0
-591 596 -597 0
591 -596 -597 0
597 -596 -591 0
591 596 597 0
-4 -597 0
577 -598 -599 0
598 -577 -599 0
-577 -598 599 0
577 598 599 0
-1 -599 0
598 -578 -600 0
578 -598 -600 0
600 -598 -578 0
600 598 578 0
-2 600 0
598 -594 -601 0
594 -598 -601 0
-594 -598 601 0
598 594 601 0
-3 601 0
596 -598 -602 0
598 -596 -602 0
602 -596 -598 0
598 596 602 0
-4 -602 0
578 -603 -604 0
603 -578 -604 0
-578 -603 604 0
578 603 604 0
-1 -604 0
-576 603 -605 0
576 -603 -605 0
605 -603 -576 0
605 603 576 0
-2 605 0
-578 606 0
-591 606 0
578 591 -606 0
603 -606 -607 0
-603 606 -607 0
-603 -606 607 0
603 606 607 0
-3 607 0
578 608 0
591 608 0
-578 -591 -608 0
-603 608 -609 0
603 -608 -609 0
609 -608 -603 0
603 608 609 0
-4 -609 0
610 -611 0
612 610 0
611 -612 -610 0
5 -610 0
-5 610 0
613 -614 0
615 613 0
614 -615 -613 0
8 -613 0
-8 613 0
616 -617 0
618 616 0
617 -618 -616 0
11 -616 0
-11 616 0
619 -620 0
621 619 0
620 -621 -619 0
29 -619 0
-29 619 0
622 -623 0
624 622 0
623 -624 -622 0
32 -622 0
-32 622 0
625 -626 0
627 625 0
626 -627 -625 0
35 -625 0
-35 625 0
628 -629 0
630 628 0
629 -630 -628 0
36 -628 0
-36 628 0
631 -632 0
633 631 0
632 -633 -631 0
37 -631 0
-37 631 0
634 -635 0
636 634 0
635 -636 -634 0
38 -634 0
-38 634 0
637 -638 0
639 637 0
638 -639 -637 0
76 -637 0
-76 637 0
640 -641 0
642 640 0
641 -642 -640 0
85 -640 0
-85 640 0
643 -644 0
645 643 0
644 -645 -643 0
88 -643 0
-88 643 0
646 -647 0
648 646 0
647 -648 -646 0
91 -646 0
-91 646 0
649 -650 0
651 649 0
650 -651 -649 0
92 -649 0
-92 649 0
652 -653 0
654 652 0
653 -654 -652 0
93 -652 0
-93 652 0
655 -656 0
657 655 0
656 -657 -655 0
94 -655 0
-94 655 0
658 -659 0
660 658 0
659 -660 -658 0
133 -658 0
-133 658 0
661 -662 0
663 661 0
662 -663 -661 0
142 -661 0
-142 661 0
664 -665 0
666 664 0
665 -666 -664 0
145 -664 0
-145 664 0
667 -668 0
669 667 0
668 -669 -667 0
148 -667 0
-148 667 0
670 -671 0
672 670 0
671 -672 -670 0
171 -670 0
-171 670 0
673 -674 0
675 673 0
674 -675 -673 0
180 -673 0
-180 673 0
676 -677 0
678 676 0
677 -678 -676 0
183 -676 0
-183 676 0
679 -680 0
681 679 0
680 -681 -679 0
196 -679 0
-196 679 0
682 -683 0
684 682 0
683 -684 -682 0
199 -682 0
-199 682 0
685 -686 0
687 685 0
686 -687 -685 0
202 -685 0
-202 685 0
688 -689 0
690 688 0
689 -690 -688 0
203 -688 0
-203 688 0
691 -692 0
693 691 0
692 -693 -691 0
204 -691 0
-204 691 0
694 -695 0
696 694 0
695 -696 -694 0
205 -694 0
-205 694 0
697 -698 0
699 697 0
698 -699 -697 0
244 -697 0
-244 697 0
700 -701 0
702 700 0
701 -702 -700 0
247 -700 0
-247 700 0
703 -704 0
705 703 0
704 -705 -703 0
250 -703 0
-250 703 0
706 -707 0
708 706 0
707 -708 -706 0
251 -706 0
-251 706 0
709 -710 0
711 709 0
710 -711 -709 0
252 -709 0
-252 709 0
712 -713 0
714 712 0
713 -714 -712 0
253 -712 0
-253 712 0
715 -716 0
717 715 0
716 -717 -715 0
296 -715 0
-296 715 0
718 -719 0
720 718 0
719 -720 -718 0
299 -718 0
-299 718 0
721 -722 0
723 721 0
722 -723 -721 0
302 -721 0
-302 721 0
724 -725 0
726 724 0
725 -726 -724 0
303 -724 0
-303 724 0
727 -728 0
729 727 0
728 -729 -727 0
304 -727 0
-304 727 0
730 -731 0
732 730 0
731 -732 -730 0
305 -730 0
-305 730 0
733 -734 0
735 733 0
734 -735 -733 0
346 -733 0
-346 733 0
736 -737 0
738 736 0
737 -738 -736 0
349 -736 0
-349 736 0
739 -740 0
741 739 0
740 -741 -739 0
352 -739 0
-352 739 0
742 -743 0
744 742 0
743 -744 -742 0
353 -742 0
-353 742 0
745 -746 0
747 745 0
746 -747 -745 0
354 -745 0
-354 745 0
748 -749 0
750 748 0
749 -750 -748 0
355 -748 0
-355 748 0
751 -752 0
753 751 0
752 -753 -751 0
356 -751 0
-356 751 0
754 -755 0
756 754 0
755 -756 -754 0
357 -754 0
-357 754 0
757 -758 0
759 757 0
758 -759 -757 0
414 -757 0
-414 757 0
760 -761 0
762 760 0
761 -762 -760 0
417 -760 0
-417 760 0
763 -764 0
765 763 0
764 -765 -763 0
431 -763 0
-431 763 0
766 -767 0
768 766 0
767 -768 -766 0
434 -766 0
-434 766 0
769 -770 0
771 769 0
770 -771 -769 0
437 -769 0
-437 769 0
772 -773 0
774 772 0
773 -774 -772 0
438 -772 0
-438 772 0
775 -776 0
777 775 0
776 -777 -775 0
439 -775 0
-439 775 0
778 -779 0
780 778 0
779 -780 -778 0
471 -778 0
-471 778 0
781 -782 0
783 781 0
782 -783 -781 0
474 -781 0
-474 781 0
784 -785 0
786 784 0
785 -786 -784 0
477 -784 0
-477 784 0
787 -788 0
789 787 0
788 -789 -787 0
478 -787 0
-478 787 0
790 -791 0
792 790 0
791 -792 -790 0
479 -790 0
-479 790 0
793 -794 0
795 793 0
794 -795 -793 0
513 -793 0
-513 793 0
796 -797 0
798 796 0
797 -798 -796 0
516 -796 0
-516 796 0
799 -800 0
801 799 0
800 -801 -799 0
519 -799 0
-519 799 0
802 -803 0
804 802 0
803 -804 -802 0
520 -802 0
-520 802 0
805 -806 0
807 805 0
806 -807 -805 0
521 -805 0
-521 805 0
808 -809 0
810 808 0
809 -810 -808 0
553 -808 0
-553 808 0
811 -812 0
813 811 0
812 -813 -811 0
556 -811 0
-556 811 0
814 -815 0
816 814 0
815 -816 -814 0
570 -814 0
-570 814 0
817 -818 0
819 817 0
818 -819 -817 0
573 -817 0
-573 817 0
820 -821 0
822 820 0
821 -822 -820 0
576 -820 0
-576 820 0
823 -824 0
825 823 0
824 -825 -823 0
577 -823 0
-577 823 0
826 -827 0
828 826 0
827 -828 -826 0
578 -826 0
-578 826 0
612 0
-615 0
618 0
621 0
-624 0
-627 0
630 0
633 0
-636 0
-639 0
-642 0
645 0
-648 0
-651 0
654 0
-657 0
-660 0
-663 0
-666 0
669 0
-672 0
-675 0
-678 0
681 0
684 0
687 0
690 0
693 0
-696 0
699 0
-702 0
705 0
-708 0
-711 0
714 0
-717 0
720 0
723 0
-726 0
-729 0
732 0
-735 0
-738 0
741 0
-744 0
-747 0
750 0
-753 0
756 0
759 0
762 0
-765 0
-768 0
771 0
-774 0
777 0
780 0
783 0
-786 0
789 0
-792 0
-795 0
798 0
801 0
-804 0
-807 0
-810 0
813 0
816 0
-819 0
822 0
825 0
-828 0
6 0
30 0
51 0
77 0
86 0
134 0
143 0
172 0
181 0
-197 0
-245 0
-297 0
-347 0
-415 0
-432 0
-472 0
-514 0
-554 0
-571 0
